# Solution for model GasLib-40
# Objective value = 9.9459268033820280e+01
loadshed[innode_1] 0
loadshed[innode_2] 0
loadshed[innode_3] 0
loadshed[innode_4] 0
loadshed[innode_5] 0
loadshed[innode_6] 0
loadshed[innode_7] 0
loadshed[innode_8] 0
loadshed[source_1] 0.0500669281296825
loadshed[source_2] 1.9652993821168929e-01
loadshed[source_3] 3.8253270083937119e-01
loadshed[sink_1] 1
loadshed[sink_2] 0
loadshed[sink_3] 0
loadshed[sink_4] 0
loadshed[sink_5] 0
loadshed[sink_6] 0
loadshed[sink_7] 0
loadshed[sink_8] 0
loadshed[sink_9] 9.9381197265719412e-01
loadshed[sink_10] 0
loadshed[sink_11] 0
loadshed[sink_12] 1
loadshed[sink_13] 0
loadshed[sink_14] 0
loadshed[sink_15] 0
loadshed[sink_16] 0
loadshed[sink_17] 0
loadshed[sink_18] 0
loadshed[sink_19] 0
loadshed[sink_20] 0
loadshed[sink_21] 1
loadshed[sink_22] 1.4573337196117214e-01
loadshed[sink_23] 0
loadshed[sink_24] 9.4204047146236369e-01
loadshed[sink_25] 0
loadshed[sink_26] 1
loadshed[sink_27] 0
loadshed[sink_28] 0
loadshed[sink_29] 0
flow[source_1,sink_3] 1.5017518320227623e+02
flow[innode_1,sink_16] 1.6354166666666970e+01
flow[innode_6,sink_13] 1.6863589823669031e+01
flow[sink_13,sink_14] 5.0942315700236307e-01
flow[sink_14,sink_10] -1.5844743509664283e+01
flow[sink_25,sink_26] 0
flow[sink_26,sink_9] 0
flow[sink_9,sink_18] -1.0120003050071702e-01
flow[sink_26,sink_4] 0
flow[sink_4,sink_20] -6.3554904768139124e+01
flow[sink_18,sink_6] -1.6455366697167385e+01
flow[sink_25,innode_8] -1.1746684986893985e+02
flow[sink_6,sink_7] -4.6780352176552384e+01
flow[sink_6,sink_22] 1.3970818812718331e+01
flow[sink_7,sink_24] 9.4787978962592589e-01
flow[sink_22,sink_1] 0
flow[sink_24,sink_21] 0
flow[sink_21,sink_12] 0
flow[sink_7,sink_5] -6.4082398632844971e+01
flow[sink_5,sink_17] -8.0436565299511642e+01
flow[sink_17,sink_4] -4.7200738101472453e+01
flow[sink_17,sink_8] -4.9589993864705846e+01
flow[sink_3,sink_23] 16.3541666666697
flow[sink_8,sink_20] -6.5944160531372518e+01
flow[sink_25,sink_20] 1.4585323196617838e+02
flow[sink_25,sink_15] -6.1604138587574425e+01
flow[sink_15,sink_29] -4.5662980855550870e+01
flow[sink_29,sink_28] 1.6354166666667879e+01
flow[sink_29,sink_2] 4.8649491065356870e+01
flow[sink_2,sink_15] 3.2295324398690241e+01
flow[sink_29,innode_7] -1.2702080525424230e+02
flow[innode_4,sink_19] 0
flow[sink_19,innode_3] 3.1674460859390422e+01
flow[innode_4,innode_5] 9.7615576842998010e+01
flow[sink_27,innode_5] -9.7615576842998010e+01
flow[sink_27,sink_19] 8.1261410176331339e+01
flow[sink_10,sink_11] 3.2708333333333641e+01
flow[sink_10,innode_2] -33.2327826502742
flow[sink_10,innode_3] -3.1674460859390422e+01
flow[innode_6,sink_25] -1.6863589823669031e+01
flow[sink_11,innode_1] 1.6354166666666970e+01
flow[sink_19,innode_2] 33.2327826502742
flow[source_3,innode_4] 9.7615576842998010e+01
flow[source_2,innode_7] 1.2702080525424230e+02
flow[sink_3,innode_8] 1.1746684986893985e+02
pressure[innode_1] 7.6483172336368725e+01
pressure[innode_2] 78.3913634629269
pressure[innode_3] 7.8321223956097384e+01
pressure[innode_4] 81.01325
pressure[innode_5] 8.0946104858962073e+01
pressure[innode_6] 75.9793173329613
pressure[innode_7] 81.01325
pressure[innode_8] 8.0511271731554174e+01
pressure[source_1] 81.01325
pressure[source_2] 81.01325
pressure[source_3] 81.01325
pressure[sink_1] 1.0132500000000002e+00
pressure[sink_2] 7.6383594549915642e+01
pressure[sink_3] 8.0511271731554174e+01
pressure[sink_4] 3.6545669471050644e+01
pressure[sink_5] 2.8749870197815039e+01
pressure[sink_6] 1.4563190036110607e+00
pressure[sink_7] 2.0985017315123393e+00
pressure[sink_8] 3.6612972200586626e+01
pressure[sink_9] 1.0132499999999152e+00
pressure[sink_10] 7.6634873643972270e+01
pressure[sink_11] 7.6483172336368725e+01
pressure[sink_12] 1.01325
pressure[sink_13] 7.5886351180431078e+01
pressure[sink_14] 7.5885439524298363e+01
pressure[sink_15] 7.6278157433528776e+01
pressure[sink_16] 7.5461522501551045e+01
pressure[sink_17] 3.4741812900435221e+01
pressure[sink_18] 1.0169117187313961e+00
pressure[sink_19] 78.3913634629269
pressure[sink_20] 4.1208352799020126e+01
pressure[sink_21] 1.01325
pressure[sink_22] 1.0132500000000002e+00
pressure[sink_23] 8.0346553719894388e+01
pressure[sink_24] 1.01325
pressure[sink_25] 75.9793173329613
pressure[sink_26] 1.0132500000000002e+00
pressure[sink_27] 8.0136075945356637e+01
pressure[sink_28] 7.7320658789264726e+01
pressure[sink_29] 7.7615941062881916e+01
interdiction[source_1,sink_3] 0
interdiction[innode_1,sink_16] 0
interdiction[innode_6,sink_13] 0
interdiction[sink_13,sink_14] 0
interdiction[sink_14,sink_10] 0
interdiction[sink_25,sink_26] 1
interdiction[sink_26,sink_9] 0
interdiction[sink_9,sink_18] 0
interdiction[sink_26,sink_4] 1
interdiction[sink_4,sink_20] 0
interdiction[sink_18,sink_6] 0
interdiction[sink_25,innode_8] 0
interdiction[sink_6,sink_7] 0
interdiction[sink_6,sink_22] 0
interdiction[sink_7,sink_24] 0
interdiction[sink_22,sink_1] 0
interdiction[sink_24,sink_21] 0
interdiction[sink_21,sink_12] 0
interdiction[sink_7,sink_5] 0
interdiction[sink_5,sink_17] 0
interdiction[sink_17,sink_4] 0
interdiction[sink_17,sink_8] 0
interdiction[sink_3,sink_23] 0
interdiction[sink_8,sink_20] 0
interdiction[sink_25,sink_20] 0
interdiction[sink_25,sink_15] 0
interdiction[sink_15,sink_29] 0
interdiction[sink_29,sink_28] 0
interdiction[sink_29,sink_2] 0
interdiction[sink_2,sink_15] 0
interdiction[sink_29,innode_7] 0
interdiction[innode_4,sink_19] 1
interdiction[sink_19,innode_3] 0
interdiction[innode_4,innode_5] 0
interdiction[sink_27,innode_5] 0
interdiction[sink_27,sink_19] 0
interdiction[sink_10,sink_11] 0
interdiction[sink_10,innode_2] 0
interdiction[sink_10,innode_3] 0
interdiction[innode_6,sink_25] 0
interdiction[sink_11,innode_1] 0
interdiction[sink_19,innode_2] 0
interdiction[source_3,innode_4] 0
interdiction[source_2,innode_7] 0
interdiction[sink_3,innode_8] 0
WCcheckFlow[source_1,sink_3] 39
WCcheckFlow[innode_1,sink_16] 1
WCcheckFlow[innode_6,sink_13] 13
WCcheckFlow[sink_13,sink_14] 12
WCcheckFlow[sink_14,sink_10] 11
WCcheckFlow[sink_25,sink_26] 0
WCcheckFlow[sink_26,sink_9] -1
WCcheckFlow[sink_9,sink_18] -2
WCcheckFlow[sink_26,sink_4] 0
WCcheckFlow[sink_4,sink_20] -14
WCcheckFlow[sink_18,sink_6] -3
WCcheckFlow[sink_25,innode_8] -36
WCcheckFlow[sink_6,sink_7] -6
WCcheckFlow[sink_6,sink_22] 2
WCcheckFlow[sink_7,sink_24] 3
WCcheckFlow[sink_22,sink_1] 1
WCcheckFlow[sink_24,sink_21] 2
WCcheckFlow[sink_21,sink_12] 1
WCcheckFlow[sink_7,sink_5] -10
WCcheckFlow[sink_5,sink_17] -11
WCcheckFlow[sink_17,sink_4] -13
WCcheckFlow[sink_17,sink_8] 1
WCcheckFlow[sink_3,sink_23] 1
WCcheckFlow[sink_8,sink_20] 0
WCcheckFlow[sink_25,sink_20] 15
WCcheckFlow[sink_25,sink_15] 6
WCcheckFlow[sink_15,sink_29] 5
WCcheckFlow[sink_29,sink_28] 1
WCcheckFlow[sink_29,sink_2] 1
WCcheckFlow[sink_2,sink_15] 0
WCcheckFlow[sink_29,innode_7] 2
WCcheckFlow[innode_4,sink_19] 0
WCcheckFlow[sink_19,innode_3] -5
WCcheckFlow[innode_4,innode_5] -2
WCcheckFlow[sink_27,innode_5] 3
WCcheckFlow[sink_27,sink_19] -4
WCcheckFlow[sink_10,sink_11] 3
WCcheckFlow[sink_10,innode_2] 1
WCcheckFlow[sink_10,innode_3] 6
WCcheckFlow[innode_6,sink_25] -14
WCcheckFlow[sink_11,innode_1] 2
WCcheckFlow[sink_19,innode_2] 0
WCcheckFlow[source_3,innode_4] -1
WCcheckFlow[source_2,innode_7] -1
WCcheckFlow[sink_3,innode_8] 37
